
  27    0


   0  15 2 3 4 5 6 10 11 19 20 21 22 23 24 25 26 
   3   7 18 16 15 12 9 8 7 
   8   5 17 15 14 12 8 
   1   3 16 15 12 
  10   3 15 14 12 
   5   3 14 13 12 
   3   2 14 13 
   1   1 13 
   7   1 13 
   3   1 12 
  10   1 12 
  10   1 27
   6   1 27
   1   1 27
   1   1 27
   4   1 27
   5   1 27
   9   1 27
   8   1 27
   6   1 27
   3   1 27
   1   1 27
   1   1 27
   6   1 27
   4   1 27
   9   1 27
   0   0 
